(set-logic ALL)
(declare-const k Int)
(declare-fun s () (_ BitVec k))
(declare-fun t () (_ BitVec k))
(assert (distinct (bvurem s (bvlshr (_ bv0 k) (bvshl s s))) (bvurem s (bvshl s (bvshl s s)))))
(check-sat)
